%%%mzn-stat: initTime=0.167019277
%%%mzn-stat: objective=387
%%%mzn-stat: nodes=13128
%%%mzn-stat: restarts=1
%%%mzn-stat: peakDepth=1686
%%%mzn-stat: solveTime=4.644423047
%%%mzn-stat: variables=3209
%%%mzn-stat: propagators=2711
%%%mzn-stat: failures=10051
%%%mzn-stat: propagations=1301505
%%%mzn-stat: nogoods=10051
%%%mzn-stat: AverageConflictSize=12.382648492687295
%%%mzn-stat: NumUnitNogoodsLearned=207
%%%mzn-stat: AverageLearnedNogoodLength=41.82568898617053
%%%mzn-stat: AverageBacktrackAmount=0
%%%mzn-stat: AverageLbd=13.152422644512983
%%%mzn-stat-end
maxleg = 387;
succ = array1d(1..100,[100, 78, 49, 33, 95, 42, 62, 6, 91, 21, 73, 43, 48, 58, 2, 84, 71, 46, 88, 96, 50, 98, 13, 41, 76, 79, 53, 82, 60, 56, 77, 47, 30, 94, 44, 17, 93, 7, 83, 59, 1, 11, 39, 34, 35, 29, 51, 80, 74, 66, 54, 14, 20, 12, 89, 92, 52, 85, 65, 24, 69, 28, 87, 37, 38, 75, 72, 55, 25, 32, 18, 64, 31, 26, 90, 5, 36, 4, 27, 45, 86, 8, 61, 19, 70, 99, 97, 10, 67, 3, 81, 63, 23, 22, 15, 40, 16, 57, 68, 9]);
% time elapsed: 8.87 s
----------
%%%mzn-stat: initTime=0.167019277
%%%mzn-stat: objective=383
%%%mzn-stat: nodes=15631
%%%mzn-stat: restarts=2
%%%mzn-stat: peakDepth=1686
%%%mzn-stat: solveTime=4.953535962
%%%mzn-stat: variables=3209
%%%mzn-stat: propagators=2711
%%%mzn-stat: failures=10458
%%%mzn-stat: propagations=1345442
%%%mzn-stat: nogoods=10458
%%%mzn-stat: AverageConflictSize=12.426659017020462
%%%mzn-stat: NumUnitNogoodsLearned=207
%%%mzn-stat: AverageLearnedNogoodLength=41.73886020271562
%%%mzn-stat: AverageBacktrackAmount=0
%%%mzn-stat: AverageLbd=13.086823484413847
%%%mzn-stat-end
maxleg = 383;
succ = array1d(1..100,[100, 78, 49, 33, 95, 42, 62, 6, 89, 21, 73, 39, 48, 58, 2, 84, 66, 81, 88, 96, 36, 98, 13, 41, 76, 79, 53, 82, 60, 56, 77, 47, 30, 94, 44, 11, 93, 7, 61, 59, 1, 50, 69, 34, 35, 67, 51, 80, 74, 71, 54, 14, 20, 70, 91, 92, 52, 85, 65, 24, 83, 28, 87, 37, 38, 75, 72, 55, 25, 12, 18, 64, 31, 26, 90, 5, 17, 4, 27, 45, 86, 8, 43, 19, 32, 99, 97, 10, 46, 3, 29, 63, 23, 22, 15, 40, 16, 57, 68, 9]);
% time elapsed: 9.17 s
----------
%%%mzn-stat: initTime=0.167019277
%%%mzn-stat: objective=375
%%%mzn-stat: nodes=18209
%%%mzn-stat: restarts=3
%%%mzn-stat: peakDepth=1686
%%%mzn-stat: solveTime=5.156618358
%%%mzn-stat: variables=3209
%%%mzn-stat: propagators=2711
%%%mzn-stat: failures=10585
%%%mzn-stat: propagations=1367265
%%%mzn-stat: nogoods=10585
%%%mzn-stat: AverageConflictSize=12.48389230042513
%%%mzn-stat: NumUnitNogoodsLearned=207
%%%mzn-stat: AverageLearnedNogoodLength=41.90562116202173
%%%mzn-stat: AverageBacktrackAmount=0
%%%mzn-stat: AverageLbd=13.11629664619745
%%%mzn-stat-end
maxleg = 375;
succ = array1d(1..100,[100, 78, 49, 33, 95, 42, 62, 6, 89, 21, 73, 39, 80, 58, 2, 84, 18, 81, 88, 96, 66, 98, 13, 41, 76, 79, 53, 82, 60, 56, 77, 47, 30, 94, 44, 11, 93, 7, 61, 59, 1, 50, 69, 34, 35, 67, 51, 70, 74, 71, 54, 14, 20, 48, 91, 92, 52, 85, 65, 24, 83, 28, 87, 37, 38, 75, 72, 55, 25, 12, 36, 64, 31, 26, 90, 5, 17, 4, 27, 45, 86, 8, 43, 19, 32, 99, 97, 10, 46, 3, 29, 63, 23, 22, 15, 40, 16, 57, 68, 9]);
% time elapsed: 9.38 s
----------
%%%mzn-stat: initTime=0.167019277
%%%mzn-stat: objective=372
%%%mzn-stat: nodes=28274
%%%mzn-stat: restarts=4
%%%mzn-stat: peakDepth=1723
%%%mzn-stat: solveTime=9.188834406
%%%mzn-stat: variables=3209
%%%mzn-stat: propagators=2711
%%%mzn-stat: failures=18352
%%%mzn-stat: propagations=2056105
%%%mzn-stat: nogoods=18352
%%%mzn-stat: AverageConflictSize=12.64864864864865
%%%mzn-stat: NumUnitNogoodsLearned=207
%%%mzn-stat: AverageLearnedNogoodLength=39.50708369659983
%%%mzn-stat: AverageBacktrackAmount=0
%%%mzn-stat: AverageLbd=12.02931560592851
%%%mzn-stat-end
maxleg = 372;
succ = array1d(1..100,[100, 78, 49, 33, 95, 42, 62, 6, 89, 21, 73, 39, 80, 58, 2, 84, 18, 81, 88, 96, 8, 98, 13, 41, 76, 79, 53, 82, 60, 56, 77, 47, 30, 94, 44, 17, 93, 7, 61, 59, 1, 50, 69, 34, 35, 67, 51, 70, 74, 71, 54, 14, 20, 48, 91, 92, 52, 85, 65, 24, 83, 28, 87, 37, 38, 75, 72, 55, 25, 12, 66, 64, 31, 26, 90, 5, 36, 4, 27, 45, 86, 11, 43, 19, 32, 99, 97, 10, 46, 3, 29, 63, 23, 22, 15, 40, 16, 57, 68, 9]);
% time elapsed: 13.42 s
----------
%%%mzn-stat: initTime=0.167019277
%%%mzn-stat: objective=365
%%%mzn-stat: nodes=30175
%%%mzn-stat: restarts=5
%%%mzn-stat: peakDepth=1723
%%%mzn-stat: solveTime=9.326221979
%%%mzn-stat: variables=3209
%%%mzn-stat: propagators=2711
%%%mzn-stat: failures=18403
%%%mzn-stat: propagations=2069214
%%%mzn-stat: nogoods=18403
%%%mzn-stat: AverageConflictSize=12.6670651524208
%%%mzn-stat: NumUnitNogoodsLearned=207
%%%mzn-stat: AverageLearnedNogoodLength=40.10552627289029
%%%mzn-stat: AverageBacktrackAmount=0
%%%mzn-stat: AverageLbd=12.147475955007335
%%%mzn-stat-end
maxleg = 365;
succ = array1d(1..100,[100, 78, 49, 33, 95, 42, 62, 6, 89, 21, 73, 39, 80, 58, 2, 84, 18, 81, 88, 96, 8, 98, 13, 41, 76, 79, 53, 82, 60, 56, 77, 47, 30, 94, 44, 11, 93, 7, 61, 59, 1, 50, 69, 34, 35, 67, 51, 70, 74, 71, 54, 14, 20, 48, 91, 92, 52, 85, 65, 24, 83, 28, 87, 37, 38, 75, 72, 55, 25, 12, 66, 64, 31, 26, 90, 5, 17, 4, 27, 45, 86, 36, 43, 19, 32, 99, 97, 10, 46, 3, 29, 63, 23, 22, 15, 40, 16, 57, 68, 9]);
% time elapsed: 13.57 s
----------
%%%mzn-stat: initTime=0.167019277
%%%mzn-stat: objective=208
%%%mzn-stat: nodes=31478
%%%mzn-stat: restarts=5
%%%mzn-stat: peakDepth=1723
%%%mzn-stat: solveTime=9.416792282
%%%mzn-stat: variables=3209
%%%mzn-stat: propagators=2711
%%%mzn-stat: failures=18429
%%%mzn-stat: propagations=2077734
%%%mzn-stat: nogoods=18429
%%%mzn-stat: AverageConflictSize=12.668457322697922
%%%mzn-stat: NumUnitNogoodsLearned=207
%%%mzn-stat: AverageLearnedNogoodLength=40.15410494329589
%%%mzn-stat: AverageBacktrackAmount=0
%%%mzn-stat: AverageLbd=12.160887731293071
%%%mzn-stat-end
maxleg = 208;
succ = array1d(1..100,[100, 78, 49, 69, 95, 28, 44, 42, 67, 21, 77, 43, 96, 58, 2, 84, 36, 89, 88, 53, 8, 98, 13, 41, 61, 74, 11, 82, 60, 56, 75, 51, 30, 94, 38, 18, 93, 80, 47, 65, 1, 50, 76, 35, 7, 29, 40, 20, 91, 17, 54, 22, 6, 48, 86, 92, 45, 70, 85, 24, 83, 34, 72, 37, 52, 73, 81, 55, 25, 12, 27, 64, 71, 31, 90, 5, 79, 4, 26, 62, 68, 66, 39, 19, 32, 99, 97, 10, 46, 3, 9, 63, 23, 59, 15, 14, 16, 57, 87, 33]);
% time elapsed: 13.67 s
----------
==========
% time elapsed: 13.67 s
%%%mzn-stat: initTime=0.167019277
%%%mzn-stat: objective=208
%%%mzn-stat: nodes=31478
%%%mzn-stat: restarts=5
%%%mzn-stat: peakDepth=1723
%%%mzn-stat: solveTime=9.416797707
%%%mzn-stat: variables=3209
%%%mzn-stat: propagators=2711
%%%mzn-stat: failures=18429
%%%mzn-stat: propagations=2077734
%%%mzn-stat: nogoods=18429
%%%mzn-stat: AverageConflictSize=12.668457322697922
%%%mzn-stat: NumUnitNogoodsLearned=207
%%%mzn-stat: AverageLearnedNogoodLength=40.15410494329589
%%%mzn-stat: AverageBacktrackAmount=0
%%%mzn-stat: AverageLbd=12.160887731293071
%%%mzn-stat-end
